32      4       
16      13      15      16      
0       0       0       0       0       1       2       
5       1       1       1       4       1       3       
9       16      1       5       6       1       4       
8       3       2       1       1       1       5       
10      1       1       1       6       1       6       
7       1       4       7       1       2       14      7       
7       2       1       7       4       1       8       
3       2       7       2       1       2       11      9       
7       5       5       5       5       2       16      10      
8       4       6       4       6       2       19      12      
7       1       1       1       6       2       16      15      
6       1       4       2       8       1       13      
1       2       8       1       7       1       15      
5       7       1       10      1       1       16      
8       1       5       13      5       1       17      
8       6       1       1       1       1       17      
10      1       1       1       2       1       18      
9       2       6       6       5       1       20      
10      11      1       7       8       1       20      
1       1       1       1       1       1       21      
3       3       11      1       1       1       22      
1       7       1       1       16      2       26      23      
3       1       3       7       1       2       28      24      
5       6       3       1       6       1       25      
9       7       6       7       7       1       27      
5       1       8       7       1       1       28      
10      9       1       4       6       1       29      
4       1       1       4       1       1       29      
1       6       1       1       1       1       30      
6       10      5       1       1       1       31      
7       1       1       3       1       1       32      
0       0       0       0       0       0       
